S = 9;
start = [|0,0,0,73,63,0,0,0,75,0,0,0,0,0,0,0,0,0,0,0,0,0,0,36,0,0,0,0,52,57,0,0,0,0,0,0,0,0,58,0,0,0,0,8,0,0,0,0,0,0,31,62,0,0,33,0,20,0,6,17,0,0,0,0,0,0,77,0,0,0,0,0,38,0,0,0,11,48,0,0,0|
0,0,0,0,0,0,0,0,0,0,0,0,0,43,0,0,54,10,72,0,50,0,0,0,40,0,58,27,0,0,29,0,69,0,0,63,0,77,0,0,0,62,0,37,66,0,0,0,0,0,21,0,0,0,0,0,0,0,0,0,24,0,0,0,0,0,0,46,0,20,0,0,0,0,60,0,0,0,70,0,0|
2,54,0,0,0,5,28,0,0,0,0,0,22,0,14,0,7,77,0,0,0,0,0,29,0,0,0,0,0,0,75,0,0,0,0,36,0,0,0,0,20,0,34,0,0,79,0,0,0,0,0,50,0,0,0,70,0,59,0,0,0,0,0,0,0,0,21,0,0,0,0,57,31,0,0,0,0,0,64,0,0|
41,0,74,0,46,0,0,0,8,0,0,3,0,0,0,67,0,0,24,0,0,17,0,0,0,73,0,0,0,0,0,0,0,39,56,0,0,0,45,0,0,31,0,0,0,0,0,0,42,0,0,58,0,0,0,0,0,0,65,28,79,10,0,0,76,0,0,0,0,0,22,0,0,0,40,0,0,0,4,0,0|
49,0,0,0,58,0,0,0,0,0,0,18,0,0,4,0,0,0,0,0,0,0,0,0,0,44,38,0,0,0,0,0,0,0,77,0,0,0,0,0,0,60,0,0,0,0,19,0,69,0,0,0,0,0,0,0,0,0,0,0,0,0,5,70,15,63,37,0,0,0,0,50,0,0,0,0,0,0,54,0,0|
66,0,0,0,35,0,33,0,0,0,0,5,0,0,34,13,0,0,0,0,15,0,0,8,0,60,0,0,0,0,0,0,0,72,48,54,47,63,0,0,0,75,41,0,0,0,0,0,57,0,0,0,0,26,0,9,51,31,0,0,0,0,0,0,0,0,0,0,11,58,0,0,0,0,0,0,0,0,0,6,0|
0,0,0,0,36,0,0,24,0,0,0,0,0,29,52,0,0,0,0,0,0,0,77,0,0,0,0,37,0,0,0,0,55,0,22,73,4,0,0,0,0,0,72,0,42,0,0,0,2,1,0,0,12,0,39,0,0,0,0,34,0,0,0,0,0,61,0,0,0,65,71,0,5,0,0,81,0,80,0,0,0|
0,18,0,76,0,29,0,7,0,0,0,28,0,0,0,0,73,0,0,35,0,0,54,0,0,41,0,34,30,38,0,0,67,0,0,0,0,0,0,0,49,0,0,0,0,0,0,0,0,11,0,0,27,0,52,25,36,0,81,0,0,0,0,69,0,0,0,45,0,0,0,0,0,0,0,0,0,50,0,68,63|
0,0,0,0,0,0,0,0,0,0,30,0,0,2,0,56,0,0,0,37,0,0,32,0,0,0,0,0,0,0,0,0,71,0,0,0,0,0,0,28,0,0,39,0,0,0,0,0,13,0,0,0,0,0,80,0,0,0,0,27,0,4,0,0,0,54,0,0,55,8,0,6,0,0,0,0,0,0,0,0,0|
0,0,0,0,0,23,0,27,0,64,0,0,0,0,16,0,69,0,5,77,62,32,0,0,0,0,0,53,66,0,0,0,41,0,0,0,0,0,0,0,0,0,0,0,0,0,0,0,38,0,4,45,0,36,0,8,0,46,0,0,70,0,33,0,0,0,0,0,0,0,0,0,0,0,0,10,0,29,24,0,0|
4,0,9,0,0,0,0,0,0,0,0,77,0,68,41,0,47,0,0,0,0,0,16,0,0,0,3,0,0,0,0,0,0,0,6,0,0,57,0,0,0,0,0,0,0,21,0,0,0,0,0,0,64,0,0,0,7,0,0,0,51,74,0,0,0,0,0,0,0,1,0,0,0,0,0,58,0,70,0,76,0|
60,0,0,0,0,52,0,5,44,0,0,0,0,0,0,0,0,0,0,0,64,68,13,0,21,0,0,18,33,0,0,34,0,0,0,35,0,0,0,0,0,0,70,0,0,0,69,26,0,7,0,0,0,0,0,0,59,0,0,16,0,0,0,0,0,0,0,0,0,9,56,0,0,45,0,0,80,0,0,0,0|
0,0,0,0,0,0,0,51,0,0,0,75,78,0,0,0,0,0,0,0,0,48,0,0,0,0,0,74,70,0,0,0,68,0,21,0,0,0,0,0,0,0,0,0,0,0,0,0,0,0,58,0,0,0,0,0,43,0,0,0,0,2,0,0,0,0,0,0,0,0,60,0,0,0,0,0,0,20,19,44,0|
0,0,0,29,0,30,0,16,0,0,0,0,3,0,0,0,0,0,0,0,0,0,44,0,0,0,0,0,55,0,0,0,0,0,0,0,0,0,78,0,0,0,0,38,0,70,0,0,0,0,0,47,0,80,0,39,66,34,0,42,0,0,0,0,0,2,0,0,33,15,0,46,0,64,25,0,0,0,62,0,81|
0,78,0,46,0,0,37,0,0,74,0,38,0,0,0,0,0,0,73,0,69,25,0,0,2,0,0,0,0,0,57,0,0,0,0,0,19,0,0,0,59,0,0,0,56,0,0,0,0,0,0,0,0,32,50,0,0,0,0,0,58,0,0,0,0,0,13,0,0,0,3,0,21,0,49,9,0,0,0,0,0|
0,0,36,0,0,6,18,0,0,0,0,0,0,0,0,0,0,0,52,0,30,0,0,37,0,0,0,0,27,16,0,0,38,0,0,2,0,0,0,0,0,0,0,81,0,0,76,0,0,0,0,0,0,0,0,0,0,17,0,0,0,0,69,0,25,0,0,80,0,0,62,0,68,0,0,0,0,0,0,0,0|
0,0,0,0,1,62,0,0,0,0,0,0,0,4,0,0,0,0,0,0,0,18,0,0,0,0,19,0,14,0,0,0,0,46,0,24,0,0,0,0,0,0,0,0,5,0,0,0,20,0,0,55,0,0,0,0,0,0,54,0,0,0,0,0,0,79,0,0,42,0,38,0,0,0,30,0,27,0,0,0,0|
14,0,0,0,66,7,70,0,2,0,0,0,65,0,0,0,0,0,0,0,0,11,43,0,0,22,0,0,0,60,0,0,0,29,0,0,79,0,0,0,62,0,0,0,0,0,0,0,0,6,0,0,0,0,36,0,81,1,0,0,31,20,0,0,78,35,0,0,0,0,0,0,0,0,46,0,0,0,0,0,0|
0,80,25,0,56,0,0,0,0,0,0,0,0,0,0,0,0,75,21,0,0,0,0,0,0,76,0,0,61,0,0,0,0,0,0,5,0,0,0,68,0,0,0,0,52,0,0,0,0,0,0,0,48,13,0,46,0,0,0,0,0,0,71,0,11,0,0,0,0,0,0,64,0,0,0,0,0,0,0,81,0|
0,0,72,0,0,4,0,0,3,53,0,0,0,0,0,48,61,0,0,0,0,0,0,0,0,0,0,0,0,0,0,0,0,0,0,0,0,25,37,0,0,0,0,0,0,0,0,0,0,0,0,0,16,0,0,0,0,0,0,64,0,0,0,0,33,0,0,32,0,0,0,79,0,60,0,6,21,0,0,0,0|
0,0,0,0,0,0,0,0,50,0,0,0,0,0,0,0,59,0,31,0,0,1,0,0,12,0,0,45,0,0,0,0,0,0,0,0,0,0,0,0,36,41,0,0,0,11,23,0,0,0,0,0,0,0,0,0,77,0,0,0,0,0,0,7,0,0,81,0,0,0,0,0,0,0,55,0,58,0,0,18,0|
0,0,14,0,27,0,0,0,0,0,68,36,0,0,0,0,0,31,0,0,0,59,0,0,0,69,0,0,0,0,0,55,76,0,0,0,0,0,0,12,0,0,53,0,0,0,0,0,56,0,0,0,30,0,6,0,0,0,0,0,0,0,0,0,0,0,0,48,0,0,77,0,0,0,0,0,52,4,0,0,0|
0,0,79,0,31,0,0,0,0,18,0,0,0,0,0,0,11,0,49,0,0,0,0,0,0,0,0,0,0,29,0,0,12,0,36,14,0,0,0,0,0,0,0,0,0,52,42,0,0,0,0,10,0,0,0,0,0,0,0,30,0,0,0,74,0,0,0,0,0,2,0,75,0,0,0,44,0,72,0,0,0|
0,0,0,0,0,0,0,18,0,0,6,0,0,22,0,0,0,0,0,0,0,26,0,13,60,0,0,23,0,0,0,31,0,0,0,7,0,0,67,0,0,0,0,0,0,0,0,47,66,0,0,0,0,20,0,0,0,0,0,0,57,0,0,0,0,36,46,0,0,0,0,0,0,0,0,5,0,12,49,0,0|
0,0,0,0,0,0,0,0,37,0,0,0,0,0,0,0,0,49,0,0,0,47,0,0,0,0,0,0,0,0,0,0,0,8,0,0,0,0,0,0,0,57,18,0,0,0,0,0,0,22,0,24,58,25,62,0,0,0,0,0,12,0,65,0,0,0,31,0,1,0,4,44,0,0,45,0,0,0,0,0,36|
1,0,0,0,0,66,47,36,0,0,67,0,0,5,0,0,15,0,0,0,0,0,0,0,0,19,0,0,0,0,0,0,0,53,0,0,0,0,48,0,14,0,0,0,0,61,12,0,0,0,0,49,37,45,0,0,76,0,0,0,0,51,0,0,0,0,0,0,8,0,0,0,0,0,11,20,0,32,0,3,0|
0,0,0,0,30,0,0,0,0,79,62,0,17,0,0,0,10,0,0,0,0,0,0,0,37,0,0,0,0,0,51,0,0,0,13,0,0,0,0,0,0,0,0,0,0,0,0,0,0,21,33,81,4,0,0,42,0,20,0,0,0,0,0,0,0,0,0,14,0,60,45,0,0,0,0,48,0,0,0,0,71|
0,0,59,6,0,0,0,0,0,0,61,0,0,0,0,0,0,0,62,31,68,0,0,0,0,0,0,0,0,0,0,80,72,0,0,0,0,0,73,34,70,22,0,0,0,10,0,0,74,0,0,0,0,0,20,0,0,0,0,18,0,0,0,0,0,0,0,0,0,28,0,0,0,33,0,67,0,0,0,0,0|
0,0,27,0,40,16,0,0,0,0,70,52,0,0,0,0,0,67,0,0,0,0,0,0,0,0,0,0,0,0,0,0,0,79,46,0,26,0,0,0,0,0,0,0,0,0,41,0,0,0,0,0,0,0,2,36,0,0,0,14,0,0,0,62,51,0,0,81,0,0,42,78,20,0,0,0,0,0,0,0,0|
0,28,0,5,0,0,0,0,0,0,74,0,0,14,0,7,0,0,0,52,0,0,0,0,0,0,0,0,0,0,0,51,0,0,0,13,29,0,0,0,0,0,0,0,60,20,17,0,0,0,61,46,0,0,0,44,0,0,0,0,0,0,0,0,0,0,0,0,0,0,0,39,35,59,0,18,0,21,65,0,0|
13,72,0,0,0,0,0,0,0,0,0,0,0,42,0,0,0,0,0,0,0,0,0,0,0,55,50,0,73,28,59,0,4,0,0,0,0,0,19,0,0,0,0,0,1,0,0,0,43,0,0,0,0,0,0,0,0,0,0,0,0,25,0,79,0,0,0,74,0,0,0,0,0,80,0,0,0,8,0,46,32|
0,62,0,31,0,0,0,0,0,35,0,0,20,0,0,0,0,0,0,0,0,0,0,0,0,0,0,60,0,0,0,0,0,0,0,0,0,64,0,0,0,0,0,0,81,42,0,0,0,0,0,2,56,0,0,78,0,0,38,5,0,0,0,0,6,0,0,0,0,14,0,0,0,4,0,0,9,0,0,0,0|
45,0,0,0,0,0,0,0,0,0,0,0,0,63,0,0,81,0,0,0,72,0,0,0,67,0,0,0,41,0,0,20,70,44,8,0,42,0,21,79,37,36,0,0,28,33,0,0,0,75,0,18,0,0,0,0,0,58,0,46,0,0,0,0,0,0,57,0,77,0,0,71,0,78,0,0,0,0,0,48,0|
0,0,0,0,0,0,0,0,18,0,75,0,19,0,36,0,0,0,0,30,0,0,0,0,0,70,0,0,0,0,0,43,48,0,0,0,0,0,0,0,0,0,74,0,0,26,58,0,0,0,0,63,0,14,0,0,0,0,0,67,34,1,59,0,0,45,0,0,0,5,0,0,0,0,0,0,42,0,0,0,0|
0,0,0,0,0,0,44,0,0,4,0,0,0,0,0,0,0,0,57,0,0,20,0,0,0,0,0,81,38,0,0,0,0,3,0,0,0,0,0,0,0,0,0,11,0,36,0,0,0,0,0,0,0,0,0,0,0,0,0,0,30,45,0,0,18,60,80,23,0,0,0,0,0,39,0,0,0,0,75,70,72|
0,0,0,0,0,0,0,43,0,48,76,0,0,0,0,0,0,0,0,0,21,0,40,0,73,0,0,0,78,0,0,0,0,0,0,42,0,0,32,0,3,0,0,0,0,60,0,0,30,0,0,0,0,19,0,61,0,0,0,0,0,0,0,0,0,0,0,0,0,69,0,33,0,0,57,2,6,0,0,41,0|
0,0,0,0,5,0,0,0,36,39,0,0,0,0,0,0,0,0,0,0,0,0,35,0,0,0,0,0,0,0,24,0,0,0,0,0,0,65,31,0,0,0,29,0,0,0,0,0,0,12,50,0,0,76,0,0,0,63,0,0,38,60,0,0,0,0,0,77,0,56,0,0,0,0,0,0,7,52,0,79,0|
0,0,0,0,0,0,0,0,73,0,0,0,11,9,20,0,0,35,0,0,0,0,0,77,0,0,0,13,0,0,0,0,0,0,0,0,0,0,0,0,0,27,45,0,34,55,0,53,39,0,18,0,26,10,79,0,0,0,52,58,74,0,0,0,0,0,0,2,0,59,78,0,12,48,50,0,0,28,0,0,0|
0,0,0,0,0,0,0,0,0,0,0,0,0,0,0,0,0,57,0,0,55,0,14,0,0,0,0,0,0,51,0,0,0,0,0,0,67,0,0,4,8,0,0,0,0,13,0,0,0,0,0,0,0,0,0,0,0,0,10,0,0,0,0,0,0,0,0,0,0,0,0,0,24,15,0,0,0,39,0,0,0|
0,31,0,0,0,0,0,0,0,0,0,0,0,0,0,0,0,0,0,0,57,0,0,0,16,0,0,32,0,0,0,52,0,0,0,0,0,79,0,0,0,0,0,77,37,44,0,48,0,0,0,0,51,0,78,5,0,0,33,0,0,0,56,0,0,0,0,0,0,0,30,66,0,29,0,0,0,0,0,0,0|
0,0,0,0,0,0,0,0,0,0,1,32,0,0,0,0,0,7,0,73,0,0,0,0,0,0,0,0,0,0,0,0,0,0,70,0,43,33,57,0,0,0,0,0,0,0,0,2,0,41,34,0,0,59,0,0,0,0,0,0,0,42,0,0,0,0,0,50,0,0,0,0,45,0,0,0,44,0,0,0,0|
74,0,0,18,0,0,0,0,0,0,0,0,0,0,15,66,0,0,40,0,22,0,0,0,0,0,45,0,0,4,28,0,0,0,0,0,0,0,0,0,7,30,78,0,0,0,0,71,0,0,0,0,0,0,0,24,0,11,0,0,35,0,0,0,0,0,0,0,0,51,0,0,0,0,0,57,0,0,0,0,5|
0,0,0,0,55,0,29,10,78,0,63,0,52,0,43,0,0,0,0,0,38,0,0,0,0,18,0,0,0,8,0,57,0,74,0,0,0,0,0,0,56,0,0,0,0,0,0,64,0,0,0,37,0,0,0,23,0,0,0,0,0,0,32,0,0,0,49,65,0,0,67,0,3,0,0,0,0,0,0,0,0|
0,0,0,7,0,0,0,0,0,0,56,0,0,0,0,0,0,0,0,60,0,0,24,0,0,0,0,0,0,0,0,0,43,0,0,0,49,0,47,0,69,0,0,40,0,0,0,0,0,0,0,0,5,58,0,0,0,77,0,0,0,0,0,0,0,20,0,0,0,61,0,0,0,66,0,0,0,0,35,37,0|
0,41,0,2,0,0,0,0,0,0,12,6,0,0,0,0,0,0,80,0,0,0,0,0,0,0,0,0,0,0,66,0,0,0,0,0,20,53,59,0,0,52,61,50,0,57,0,0,0,0,0,21,0,46,0,0,0,16,69,25,0,13,0,0,0,3,68,0,0,62,0,37,0,0,0,0,0,78,0,0,0|
18,0,0,16,0,0,0,0,0,0,0,0,0,0,0,0,0,0,0,0,10,51,81,76,0,0,0,0,0,0,0,0,0,0,0,0,0,0,0,29,0,17,0,0,0,25,0,58,0,30,0,0,0,0,0,0,0,0,0,0,0,54,0,6,0,0,0,22,0,0,79,0,41,0,0,0,0,34,0,0,0|
53,32,0,17,0,0,0,0,0,0,0,40,0,0,0,0,0,0,0,0,0,0,0,21,0,0,49,0,0,0,54,0,0,0,0,15,56,0,0,74,0,0,6,0,57,0,0,0,0,0,16,0,0,0,0,26,0,0,0,0,39,0,0,0,0,41,0,0,0,0,0,60,0,0,0,0,0,45,0,31,0|
0,0,0,0,0,0,0,0,0,8,25,0,0,0,0,21,0,0,0,0,36,0,12,0,0,0,0,73,0,0,0,0,18,0,0,0,53,0,0,0,79,0,0,70,43,0,32,0,68,0,0,0,0,0,0,50,0,0,0,0,29,5,0,0,0,28,0,0,34,24,0,0,0,0,0,0,49,0,0,0,42|
0,0,0,80,68,0,0,0,0,0,0,15,38,0,0,9,4,0,0,62,0,0,0,63,22,0,2,0,0,0,0,0,0,0,0,0,0,0,0,0,0,0,0,0,0,0,70,0,0,0,0,40,28,0,10,34,17,0,0,0,1,47,46,0,14,0,66,0,0,0,0,51,0,32,77,0,0,11,20,0,0|
0,0,0,0,59,0,0,0,54,0,0,0,0,75,0,0,52,17,0,0,0,0,0,0,66,20,0,24,0,47,0,0,11,0,0,30,0,0,0,7,0,49,0,0,55,0,0,0,51,0,53,0,0,0,68,0,79,0,0,0,0,0,0,0,0,0,0,0,74,0,0,0,0,0,16,0,48,63,0,65,0|
0,0,0,0,0,0,0,0,0,0,0,48,0,0,0,73,0,0,11,0,29,54,0,0,0,34,0,0,0,3,70,12,0,0,0,0,15,0,0,0,0,0,0,0,0,0,0,0,0,0,0,39,0,43,0,77,0,0,0,0,0,0,0,65,0,0,0,21,50,80,0,0,0,0,0,0,56,0,23,0,0|
0,74,0,0,0,0,0,66,21,0,0,0,0,0,0,0,0,0,0,0,0,0,0,42,0,50,68,80,43,64,0,0,0,0,0,75,59,20,72,39,0,0,0,0,0,0,13,0,0,61,0,0,0,0,16,4,0,33,0,0,0,40,30,0,0,0,0,0,0,0,0,0,0,0,0,24,0,0,22,0,0|
0,0,0,75,0,0,0,0,0,0,7,0,0,0,68,0,0,0,0,0,0,60,0,4,0,0,0,0,0,44,0,16,0,69,45,74,0,0,0,63,0,0,0,0,0,0,0,0,0,0,0,0,0,0,70,0,2,0,61,0,0,0,0,9,0,0,58,0,0,0,0,72,0,0,0,0,0,0,0,0,13|
0,0,0,0,0,0,0,63,0,0,0,0,67,0,0,0,0,0,0,0,18,0,0,0,0,0,0,0,77,0,0,17,0,0,0,0,0,0,0,0,0,0,0,0,0,0,0,0,6,0,0,0,65,50,44,0,0,7,35,0,0,12,0,73,0,0,0,0,0,0,81,0,0,57,0,28,0,0,0,30,0|
0,0,0,11,0,0,0,0,0,0,0,0,0,0,75,71,0,0,81,0,0,0,0,27,0,0,7,0,58,2,0,0,0,0,0,0,0,0,0,0,0,18,65,49,0,0,0,0,8,0,0,13,0,60,59,69,0,29,23,0,0,0,0,47,0,0,0,0,0,74,0,0,52,44,0,33,0,30,0,0,0|
0,0,0,0,0,0,0,77,0,3,0,7,0,0,0,0,8,0,0,47,0,0,0,0,0,0,0,0,0,0,0,75,50,0,0,0,57,11,63,0,0,0,0,56,0,19,0,30,0,0,52,36,55,0,0,0,0,0,0,0,4,34,0,45,2,0,79,0,0,44,0,0,0,0,0,0,0,0,0,0,35|
0,0,0,69,20,79,10,0,0,0,0,0,0,0,0,52,0,0,0,22,13,0,0,0,0,24,0,5,0,0,45,0,8,0,0,32,0,0,0,0,0,0,0,0,25,0,0,63,0,0,0,0,0,27,0,74,31,0,0,0,0,0,18,0,0,0,0,0,36,17,54,0,0,0,0,0,0,0,0,0,28|
36,0,29,1,0,0,0,0,0,6,0,0,0,73,0,0,0,0,0,0,0,0,0,0,0,0,78,0,0,0,0,0,30,0,0,0,0,61,64,0,52,0,0,0,0,59,0,0,0,0,0,0,15,0,45,0,0,57,0,0,0,0,0,0,0,0,0,43,0,0,0,0,0,0,2,0,0,0,12,0,0|
59,0,68,0,0,0,0,0,14,0,0,80,53,0,0,0,0,0,0,0,0,0,10,0,0,0,0,0,15,0,0,0,0,0,0,0,0,0,62,0,0,0,0,0,0,0,0,54,0,0,0,79,0,0,0,0,0,44,0,0,0,77,48,0,0,0,0,0,64,0,0,0,0,0,0,0,0,0,0,45,0|
33,30,0,0,0,0,0,8,0,81,0,0,0,15,0,0,0,0,0,0,0,0,0,0,0,0,0,10,0,0,0,0,0,0,0,0,50,0,0,0,21,0,0,0,0,0,0,0,0,0,20,0,43,0,0,0,0,0,0,22,0,0,9,25,0,0,0,52,0,0,0,0,0,0,0,46,0,0,0,62,0|
0,0,0,0,0,0,55,0,0,17,13,0,0,11,0,0,0,0,0,51,0,0,2,39,0,72,0,0,0,0,0,0,0,0,0,79,0,0,0,0,0,37,0,0,58,0,0,0,10,0,29,0,0,35,0,0,0,41,0,63,0,0,0,71,0,27,0,0,0,66,0,0,25,7,0,0,0,23,16,0,0|
0,0,0,0,44,0,0,0,52,0,2,0,0,47,0,0,0,0,0,0,28,0,0,33,0,64,23,0,0,0,35,0,0,0,54,0,0,51,0,0,0,0,0,0,0,0,0,9,37,0,0,0,81,0,0,0,0,0,36,66,0,43,0,0,8,0,0,0,0,70,0,0,0,38,0,0,0,0,0,78,0|
0,0,0,42,54,0,0,0,0,0,50,0,0,16,0,0,0,0,0,0,0,0,0,0,0,52,0,0,59,0,0,0,36,7,0,0,0,0,0,67,35,74,0,0,0,0,0,0,0,0,0,0,0,0,0,0,25,8,0,37,0,0,0,30,0,0,0,0,0,0,0,0,0,0,0,0,79,76,0,0,0|
56,0,0,0,15,0,69,0,0,0,59,0,45,0,0,0,0,32,0,6,0,0,0,30,33,0,0,14,0,42,0,0,0,0,0,0,0,24,29,0,0,0,0,0,0,76,71,40,0,0,0,43,0,0,0,22,18,0,16,54,0,67,0,0,0,0,0,0,0,0,64,0,0,0,0,0,0,0,0,35,0|
0,29,0,0,0,0,0,54,0,0,0,0,0,0,0,0,0,25,0,71,0,0,72,73,0,0,0,0,0,24,74,0,0,0,0,0,0,7,0,66,32,0,46,0,0,0,0,36,0,35,0,0,0,0,11,0,0,0,50,0,19,0,0,0,0,0,59,0,67,6,0,62,75,0,33,0,20,0,0,0,0|
0,0,0,0,0,0,0,0,0,0,0,24,0,12,18,0,0,0,0,0,0,0,0,0,0,0,0,0,4,0,0,0,0,0,0,33,9,0,0,78,0,0,52,0,0,0,21,0,0,0,0,0,0,0,17,0,73,0,0,35,0,0,0,0,20,0,0,0,38,0,0,0,0,0,71,3,0,0,0,0,6|
0,9,0,0,0,0,0,28,0,0,0,10,0,67,0,0,0,0,0,0,48,44,0,0,0,74,0,0,0,0,0,0,0,0,0,26,0,21,0,80,0,0,0,0,0,0,63,0,0,0,0,0,0,11,0,0,70,0,0,0,0,0,0,0,0,65,0,0,71,0,14,36,0,0,0,0,0,0,0,43,0|
0,0,0,0,60,0,0,0,0,0,0,0,0,0,0,0,0,0,0,0,0,0,3,58,0,0,0,0,45,0,0,0,0,0,0,0,0,18,0,0,0,26,0,73,0,0,0,0,12,13,0,0,0,49,0,0,0,0,0,0,0,30,0,0,0,0,0,76,0,0,0,0,0,0,0,0,0,0,0,0,0|
0,0,41,0,0,0,0,0,55,0,0,0,0,64,63,0,3,56,0,0,16,0,0,0,39,0,0,0,0,13,0,0,0,38,0,80,0,0,20,0,0,0,0,72,10,31,0,57,59,9,0,0,0,0,25,0,49,0,2,0,0,7,51,24,30,0,0,0,0,0,0,0,40,0,0,0,0,0,0,0,0|
38,0,0,0,2,0,0,0,0,0,0,0,0,0,0,0,0,0,0,21,0,0,22,0,0,0,0,54,35,0,0,48,57,0,9,0,0,0,40,0,0,0,0,67,0,0,3,0,62,0,0,69,0,0,0,55,0,13,0,0,0,37,0,0,0,0,5,18,0,49,1,17,0,0,0,27,0,0,0,0,0|
0,0,63,0,0,0,0,62,0,55,0,72,0,0,0,0,0,23,0,0,0,27,0,1,0,57,0,0,12,0,0,0,0,0,0,0,0,0,0,56,0,19,81,0,0,4,0,0,0,0,0,0,0,0,0,0,32,9,0,65,75,0,0,0,0,0,0,0,0,50,0,0,0,30,59,22,0,0,0,0,0|
30,0,0,19,0,0,14,0,0,44,0,27,0,0,0,81,0,52,59,0,80,0,8,38,0,0,0,0,0,50,49,0,0,0,0,64,0,0,0,0,1,4,0,0,75,53,0,0,0,0,0,0,0,0,0,0,58,79,62,0,0,61,0,13,9,0,33,60,0,0,0,0,0,0,0,54,0,25,0,0,11|
0,0,0,0,81,55,0,49,0,0,0,0,9,0,0,0,0,0,47,3,0,0,0,0,72,0,0,0,0,0,0,0,0,32,0,0,0,0,38,0,0,0,0,0,48,58,0,0,0,0,0,30,0,0,74,0,0,0,15,0,0,0,0,0,0,0,0,54,0,0,0,0,67,0,5,78,0,0,0,57,0|
0,0,0,10,0,0,0,0,0,0,0,59,0,0,0,0,0,0,0,69,0,50,0,20,0,0,0,21,0,0,0,0,0,0,47,0,0,0,0,0,0,66,0,0,0,0,0,81,3,0,78,0,0,0,1,7,23,0,67,0,68,0,27,61,0,51,0,0,52,0,17,0,0,0,28,0,0,0,0,0,0|
76,0,0,0,73,0,0,0,60,0,0,0,56,0,0,0,80,0,0,0,0,0,0,70,48,35,0,46,51,0,0,14,0,67,0,0,8,2,0,0,19,7,42,5,0,0,0,24,11,0,0,0,0,0,0,0,0,0,0,0,81,31,0,0,0,0,0,0,0,0,0,0,0,0,0,0,0,0,0,0,0|
0,0,17,0,0,0,0,0,0,0,0,0,81,0,77,0,0,0,0,0,0,0,57,0,0,0,0,0,0,0,48,0,75,0,49,0,0,0,15,69,0,0,54,68,0,71,0,0,0,0,0,0,0,0,0,0,0,0,12,0,43,0,29,44,0,25,73,28,0,0,8,0,13,20,0,0,0,0,72,0,0|
0,0,0,12,0,28,0,0,0,0,16,0,0,0,0,18,0,0,10,0,0,0,0,0,0,0,0,0,0,0,20,8,0,0,43,0,0,80,0,0,0,0,0,0,0,67,47,22,0,68,0,48,40,0,46,0,60,0,77,0,69,0,0,0,0,14,1,0,57,0,0,42,76,21,66,0,41,0,0,0,0|
0,0,0,0,0,0,0,0,41,0,0,0,0,24,21,0,0,0,0,0,39,0,58,6,78,0,22,0,0,0,7,0,0,0,0,0,0,0,27,0,57,0,0,0,53,69,0,0,0,0,0,0,0,0,8,0,0,25,3,0,37,66,0,0,0,0,0,0,0,0,74,0,0,26,0,0,2,0,0,0,0|
44,0,0,0,0,0,0,68,0,0,10,60,8,0,0,0,2,0,0,0,0,0,0,0,0,0,0,3,37,0,41,0,0,0,0,0,0,0,0,0,0,0,0,65,0,0,0,0,0,43,0,0,0,0,13,0,0,73,0,0,0,0,0,0,0,0,0,0,0,0,0,0,6,0,0,0,0,0,0,0,0|
0,0,0,0,79,0,0,11,0,0,0,0,0,0,0,0,45,0,8,0,31,0,0,0,0,0,0,33,57,0,0,15,0,0,0,0,0,0,0,0,0,0,58,32,26,0,0,0,0,0,0,0,0,0,0,0,34,30,0,19,0,22,20,81,0,0,0,0,0,0,50,0,0,65,0,0,73,0,0,0,38|
31,0,0,0,0,78,0,0,0,67,0,0,48,49,0,0,57,0,0,0,0,29,0,0,0,0,73,0,0,0,0,63,0,36,0,0,0,0,79,20,0,23,0,0,61,50,0,7,0,46,60,0,33,0,0,58,35,0,0,0,0,0,0,0,0,0,26,0,0,71,0,0,0,16,0,0,45,42,0,15,0|];